utils/lkh_tsp_solver/resource/single.tsp
NAME : single
TYPE : ATSP
DIMENSION : 8
EDGE_WEIGHT_TYPE : EXPLICIT
EDGE_WEIGHT_FORMAT : FULL_MATRIX
EDGE_WEIGHT_SECTION
0 481 534 562 586 751 384 426 
0 0 66 91 118 342 213 244 
0 66 0 31 60 125000 255 286 
0 91 31 0 29 308 235 266 
0 118 60 29 0 313 242 273 
0 342 125000 308 313 0 394 279 
0 213 255 235 242 394 0 121 
0 244 286 266 273 279 121 0 
EOF